! B3LYP D4 def2-TZVP FREQ PAL8 
* xyzfile 0 1 Ar.xyz 