! B3LYP def2-TZVP FREQ PAL8 
* xyzfile 0 1 Ar2.xyz 