!B3LYP D4 DEF2-TZVP OPT FREQ PAL4
%FREQ TEMP 77, 298, 330, 450 END
%maxcore 1800

* XYZFILE 0 1 gem.xyz
