! B3LYP pc-0 Opt Freq PAL8
* xyzfile 0 1 COH2.xyz
