! B3LYP pc-0 Opt Freq PAL8
* xyzfile 0 1 H2.xyz
