! B3LYP def2-TZVP OPT PAL8 
* xyzfile 0 1 CO.xyz 
