! B3LYP def2-SVP OPT PAL8 
* xyzfile 0 1 CO.xyz 
