! B3LYP def2-QZVP OPT PAL8 
* xyzfile 0 1 CO.xyz 
